Running for instance ./models/c205.txt
Generating routes...
Execution time:  4.383477  seconds
Academic license - for non-commercial use only
Warning: constraint name "Cliente esta na rota x1" has a space
Optimize a model with 26 rows, 10000 columns and 64761 nonzeros
Variable types: 0 continuous, 10000 integer (0 binary)
Coefficient statistics:
  Matrix range     [1e+00, 1e+00]
  Objective range  [2e+01, 2e+02]
  Bounds range     [1e+00, 1e+00]
  RHS range        [1e+00, 2e+01]
Found heuristic solution: objective 625.0399026
Presolve removed 1 rows and 3405 columns
Presolve time: 0.06s
Presolved: 25 rows, 6595 columns, 36795 nonzeros
Found heuristic solution: objective 608.3553618
Variable types: 0 continuous, 6595 integer (6595 binary)

Root relaxation: objective 2.965726e+02, 115 iterations, 0.01 seconds

    Nodes    |    Current Node    |     Objective Bounds      |     Work
 Expl Unexpl |  Obj  Depth IntInf | Incumbent    BestBd   Gap | It/Node Time

     0     0  296.57263    0   23  608.35536  296.57263  51.3%     -    0s
H    0     0                     342.6724619  296.57263  13.5%     -    0s
     0     0  296.57263    0   23  342.67246  296.57263  13.5%     -    0s
H    0     0                     311.7515129  296.57263  4.87%     -    0s
H    0     1                     306.2094341  296.57263  3.15%     -    0s

Explored 1 nodes (115 simplex iterations) in 0.16 seconds
Thread count was 8 (of 8 available processors)

Solution count 4: 306.209 311.752 342.672 608.355 

Optimal solution found (tolerance 1.00e-04)
Best objective 3.062094341453e+02, best bound 3.062094341453e+02, gap 0.0000%

Routes:
22 6 23 18 19 12 16 14 15
24 25 17 13 9 10 11 8 21
20 5 2 1 3 4 7

Distance: 306.209434145
Execution time:  5.409302  seconds
